p cnf 829 1732
1 0
2 0
3 0
4 0
5 0
6 0
7 0
8 0
9 0
10 0
11 0
12 0
13 0
14 0
15 0
16 0
17 0
18 0
19 0
20 0
21 0
22 0
23 0
24 0
25 0
26 0
27 0
28 0
29 0
30 0
31 0
32 0
33 0
34 0
35 0
36 0
37 0
38 0
39 0
40 0
41 0
42 0
43 0
44 0
45 0
46 0
47 0
48 0
49 0
50 0
-51 0
-52 0
-53 0
-54 0
-55 0
-56 0
-57 0
-58 0
-59 0
-60 0
-61 0
-62 0
-63 0
-64 0
-65 0
-66 0
-67 0
-68 0
-69 0
-70 0
-71 0
-72 0
-73 0
-74 0
-75 0
-76 0
-77 0
-78 0
-79 0
-80 0
-81 0
-82 0
-83 0
-84 0
-85 0
-86 0
-87 0
-88 0
-89 0
-90 0
-91 0
-92 0
-93 0
-94 0
-95 0
-96 0
-97 0
-98 0
-99 0
-100 0
-101 102 0
102 -103 0
101 103 -102 0
1 -102 0
-1 102 0
-103 104 0
-105 104 0
103 105 -104 0
101 -104 0
-101 104 0
-106 107 0
-108 107 0
106 108 -107 0
2 -107 0
-2 107 0
-109 110 0
-111 110 0
109 111 -110 0
106 -110 0
-106 110 0
-112 113 0
113 -114 0
112 114 -113 0
109 -113 0
-109 113 0
-115 116 0
-117 116 0
115 117 -116 0
112 -116 0
-112 116 0
-118 119 0
119 -120 0
118 120 -119 0
115 -119 0
-115 119 0
-121 122 0
-123 122 0
121 123 -122 0
118 -122 0
-118 122 0
-117 124 0
-120 124 0
-123 124 0
-125 124 0
117 120 123 125 -124 0
121 -124 0
-121 124 0
-126 127 0
127 -128 0
126 128 -127 0
3 -127 0
-3 127 0
-129 130 0
130 -131 0
129 131 -130 0
126 -130 0
-126 130 0
-132 133 0
-134 133 0
132 134 -133 0
129 -133 0
-129 133 0
-135 136 0
136 -137 0
135 137 -136 0
132 -136 0
-132 136 0
-138 139 0
139 -140 0
138 140 -139 0
135 -139 0
-135 139 0
-141 142 0
-143 142 0
141 143 -142 0
138 -142 0
-138 142 0
-137 144 0
-140 144 0
-143 144 0
144 -145 0
137 140 143 145 -144 0
141 -144 0
-141 144 0
-146 147 0
147 -148 0
146 148 -147 0
4 -147 0
-4 147 0
-149 150 0
150 -151 0
149 151 -150 0
146 -150 0
-146 150 0
149 -152 0
-149 152 0
-153 154 0
154 -155 0
153 155 -154 0
5 -154 0
-5 154 0
-156 157 0
-158 157 0
156 158 -157 0
153 -157 0
-153 157 0
-159 160 0
-161 160 0
159 161 -160 0
156 -160 0
-156 160 0
-162 163 0
-164 163 0
162 164 -163 0
159 -163 0
-159 163 0
-161 165 0
-164 165 0
165 -166 0
161 164 166 -165 0
162 -165 0
-162 165 0
-167 168 0
-169 168 0
167 169 -168 0
6 -168 0
-6 168 0
-170 171 0
-172 171 0
170 172 -171 0
167 -171 0
-167 171 0
-173 174 0
-175 174 0
173 175 -174 0
170 -174 0
-170 174 0
-176 177 0
177 -178 0
176 178 -177 0
173 -177 0
-173 177 0
-179 180 0
180 -181 0
179 181 -180 0
176 -180 0
-176 180 0
-181 182 0
-183 182 0
181 183 -182 0
179 -182 0
-179 182 0
-184 185 0
-186 185 0
184 186 -185 0
7 -185 0
-7 185 0
-187 188 0
188 -189 0
187 189 -188 0
184 -188 0
-184 188 0
-190 191 0
191 -192 0
190 192 -191 0
187 -191 0
-187 191 0
-193 194 0
-195 194 0
193 195 -194 0
190 -194 0
-190 194 0
-189 196 0
-192 196 0
-195 196 0
196 -197 0
189 192 195 197 -196 0
193 -196 0
-193 196 0
-198 199 0
199 -200 0
198 200 -199 0
8 -199 0
-8 199 0
-201 202 0
-203 202 0
201 203 -202 0
198 -202 0
-198 202 0
-204 205 0
-206 205 0
204 206 -205 0
201 -205 0
-201 205 0
-207 208 0
-209 208 0
207 209 -208 0
204 -208 0
-204 208 0
-206 210 0
-209 210 0
210 -211 0
206 209 211 -210 0
207 -210 0
-207 210 0
-212 213 0
-214 213 0
212 214 -213 0
9 -213 0
-9 213 0
-215 216 0
-217 216 0
215 217 -216 0
212 -216 0
-212 216 0
-218 219 0
-220 219 0
218 220 -219 0
215 -219 0
-215 219 0
-221 222 0
222 -223 0
221 223 -222 0
218 -222 0
-218 222 0
-224 225 0
225 -226 0
224 226 -225 0
221 -225 0
-221 225 0
-227 228 0
-229 228 0
227 229 -228 0
224 -228 0
-224 228 0
-226 230 0
-229 230 0
-231 230 0
226 229 231 -230 0
227 -230 0
-227 230 0
-232 233 0
233 -234 0
232 234 -233 0
10 -233 0
-10 233 0
-235 236 0
-237 236 0
235 237 -236 0
232 -236 0
-232 236 0
-238 239 0
-240 239 0
238 240 -239 0
235 -239 0
-235 239 0
-241 242 0
-243 242 0
241 243 -242 0
238 -242 0
-238 242 0
-243 244 0
244 -245 0
243 245 -244 0
241 -244 0
-241 244 0
-246 247 0
247 -248 0
246 248 -247 0
11 -247 0
-11 247 0
-249 250 0
-251 250 0
249 251 -250 0
246 -250 0
-246 250 0
249 -252 0
-249 252 0
-253 254 0
254 -255 0
253 255 -254 0
12 -254 0
-12 254 0
-256 257 0
257 -258 0
256 258 -257 0
253 -257 0
-253 257 0
-259 260 0
260 -261 0
259 261 -260 0
256 -260 0
-256 260 0
-262 263 0
263 -264 0
262 264 -263 0
259 -263 0
-259 263 0
-265 266 0
266 -267 0
265 267 -266 0
262 -266 0
-262 266 0
-261 268 0
-264 268 0
-267 268 0
-269 268 0
261 264 267 269 -268 0
265 -268 0
-265 268 0
-270 271 0
271 -272 0
270 272 -271 0
13 -271 0
-13 271 0
270 -273 0
-270 273 0
-274 275 0
275 -276 0
274 276 -275 0
14 -275 0
-14 275 0
-277 278 0
-279 278 0
277 279 -278 0
274 -278 0
-274 278 0
-280 281 0
281 -282 0
280 282 -281 0
277 -281 0
-277 281 0
-283 284 0
284 -285 0
283 285 -284 0
280 -284 0
-280 284 0
-286 287 0
287 -288 0
286 288 -287 0
283 -287 0
-283 287 0
-289 290 0
290 -291 0
289 291 -290 0
286 -290 0
-286 290 0
-285 292 0
-288 292 0
-291 292 0
-293 292 0
285 288 291 293 -292 0
289 -292 0
-289 292 0
-294 295 0
295 -296 0
294 296 -295 0
15 -295 0
-15 295 0
-297 298 0
298 -299 0
297 299 -298 0
294 -298 0
-294 298 0
-299 300 0
-301 300 0
299 301 -300 0
297 -300 0
-297 300 0
-302 303 0
-304 303 0
302 304 -303 0
16 -303 0
-16 303 0
-305 306 0
-307 306 0
305 307 -306 0
302 -306 0
-302 306 0
-308 309 0
-310 309 0
308 310 -309 0
305 -309 0
-305 309 0
-311 312 0
312 -313 0
311 313 -312 0
308 -312 0
-308 312 0
-314 315 0
315 -316 0
314 316 -315 0
311 -315 0
-311 315 0
-317 318 0
318 -319 0
317 319 -318 0
314 -318 0
-314 318 0
-320 321 0
-322 321 0
320 322 -321 0
317 -321 0
-317 321 0
-316 323 0
-319 323 0
-322 323 0
-324 323 0
316 319 322 324 -323 0
320 -323 0
-320 323 0
-325 326 0
326 -327 0
325 327 -326 0
17 -326 0
-17 326 0
-328 329 0
329 -330 0
328 330 -329 0
325 -329 0
-325 329 0
-331 332 0
-333 332 0
331 333 -332 0
328 -332 0
-328 332 0
-334 335 0
-336 335 0
334 336 -335 0
331 -335 0
-331 335 0
-337 338 0
338 -339 0
337 339 -338 0
334 -338 0
-334 338 0
-336 340 0
-339 340 0
340 -341 0
336 339 341 -340 0
337 -340 0
-337 340 0
-342 343 0
343 -344 0
342 344 -343 0
18 -343 0
-18 343 0
-345 346 0
-347 346 0
345 347 -346 0
342 -346 0
-342 346 0
-348 349 0
-350 349 0
348 350 -349 0
345 -349 0
-345 349 0
-351 352 0
352 -353 0
351 353 -352 0
348 -352 0
-348 352 0
-350 354 0
-353 354 0
354 -355 0
350 353 355 -354 0
351 -354 0
-351 354 0
-356 357 0
357 -358 0
356 358 -357 0
19 -357 0
-19 357 0
-359 360 0
360 -361 0
359 361 -360 0
356 -360 0
-356 360 0
-362 363 0
363 -364 0
362 364 -363 0
359 -363 0
-359 363 0
-365 366 0
-367 366 0
365 367 -366 0
362 -366 0
-362 366 0
-368 369 0
369 -370 0
368 370 -369 0
365 -369 0
-365 369 0
-371 372 0
-373 372 0
371 373 -372 0
368 -372 0
-368 372 0
-367 374 0
-370 374 0
-373 374 0
-375 374 0
367 370 373 375 -374 0
371 -374 0
-371 374 0
-376 377 0
377 -378 0
376 378 -377 0
20 -377 0
-20 377 0
-379 380 0
-381 380 0
379 381 -380 0
376 -380 0
-376 380 0
-382 383 0
-384 383 0
382 384 -383 0
379 -383 0
-379 383 0
-385 386 0
386 -387 0
385 387 -386 0
382 -386 0
-382 386 0
385 -388 0
-385 388 0
-389 390 0
390 -391 0
389 391 -390 0
21 -390 0
-21 390 0
-392 393 0
-394 393 0
392 394 -393 0
389 -393 0
-389 393 0
-395 396 0
-397 396 0
395 397 -396 0
392 -396 0
-392 396 0
-398 399 0
-400 399 0
398 400 -399 0
395 -399 0
-395 399 0
-397 401 0
-400 401 0
401 -402 0
397 400 402 -401 0
398 -401 0
-398 401 0
-403 404 0
404 -405 0
403 405 -404 0
22 -404 0
-22 404 0
403 -406 0
-403 406 0
-407 408 0
408 -409 0
407 409 -408 0
23 -408 0
-23 408 0
-410 411 0
411 -412 0
410 412 -411 0
407 -411 0
-407 411 0
-413 414 0
414 -415 0
413 415 -414 0
410 -414 0
-410 414 0
-416 417 0
417 -418 0
416 418 -417 0
413 -417 0
-413 417 0
-419 420 0
420 -421 0
419 421 -420 0
416 -420 0
-416 420 0
-415 422 0
-418 422 0
-421 422 0
-423 422 0
415 418 421 423 -422 0
419 -422 0
-419 422 0
-424 425 0
425 -426 0
424 426 -425 0
24 -425 0
-24 425 0
-427 428 0
-429 428 0
427 429 -428 0
424 -428 0
-424 428 0
-430 431 0
-432 431 0
430 432 -431 0
427 -431 0
-427 431 0
-433 434 0
-435 434 0
433 435 -434 0
430 -434 0
-430 434 0
-436 437 0
437 -438 0
436 438 -437 0
433 -437 0
-433 437 0
-435 439 0
-438 439 0
439 -440 0
435 438 440 -439 0
436 -439 0
-436 439 0
-441 442 0
-443 442 0
441 443 -442 0
25 -442 0
-25 442 0
-444 445 0
-446 445 0
444 446 -445 0
441 -445 0
-441 445 0
-447 448 0
448 -449 0
447 449 -448 0
444 -448 0
-444 448 0
-446 450 0
-449 450 0
450 -451 0
446 449 451 -450 0
447 -450 0
-447 450 0
-452 453 0
453 -454 0
452 454 -453 0
26 -453 0
-26 453 0
-455 456 0
-457 456 0
455 457 -456 0
452 -456 0
-452 456 0
-458 459 0
-460 459 0
458 460 -459 0
455 -459 0
-455 459 0
-460 461 0
461 -462 0
460 462 -461 0
458 -461 0
-458 461 0
-463 464 0
464 -465 0
463 465 -464 0
27 -464 0
-27 464 0
-466 467 0
-468 467 0
466 468 -467 0
463 -467 0
-463 467 0
-469 470 0
470 -471 0
469 471 -470 0
466 -470 0
-466 470 0
-472 473 0
-474 473 0
472 474 -473 0
469 -473 0
-469 473 0
-475 476 0
476 -477 0
475 477 -476 0
472 -476 0
-472 476 0
-474 478 0
-477 478 0
-479 478 0
474 477 479 -478 0
475 -478 0
-475 478 0
-480 481 0
-482 481 0
480 482 -481 0
28 -481 0
-28 481 0
-483 484 0
484 -485 0
483 485 -484 0
480 -484 0
-480 484 0
-486 487 0
-488 487 0
486 488 -487 0
483 -487 0
-483 487 0
-489 490 0
490 -491 0
489 491 -490 0
486 -490 0
-486 490 0
489 -492 0
-489 492 0
-493 494 0
-495 494 0
493 495 -494 0
29 -494 0
-29 494 0
-496 497 0
-498 497 0
496 498 -497 0
493 -497 0
-493 497 0
-499 500 0
500 -501 0
499 501 -500 0
496 -500 0
-496 500 0
-495 502 0
-498 502 0
-501 502 0
-503 502 0
495 498 501 503 -502 0
499 -502 0
-499 502 0
-504 505 0
-506 505 0
504 506 -505 0
30 -505 0
-30 505 0
-507 508 0
508 -509 0
507 509 -508 0
504 -508 0
-504 508 0
-510 511 0
-512 511 0
510 512 -511 0
507 -511 0
-507 511 0
-513 514 0
514 -515 0
513 515 -514 0
510 -514 0
-510 514 0
-509 516 0
-512 516 0
-515 516 0
516 -517 0
509 512 515 517 -516 0
513 -516 0
-513 516 0
-518 519 0
519 -520 0
518 520 -519 0
31 -519 0
-31 519 0
-521 522 0
522 -523 0
521 523 -522 0
518 -522 0
-518 522 0
521 -524 0
-521 524 0
-525 526 0
-527 526 0
525 527 -526 0
32 -526 0
-32 526 0
-528 529 0
529 -530 0
528 530 -529 0
525 -529 0
-525 529 0
-531 532 0
-533 532 0
531 533 -532 0
528 -532 0
-528 532 0
-534 535 0
535 -536 0
534 536 -535 0
531 -535 0
-531 535 0
-537 538 0
538 -539 0
537 539 -538 0
534 -538 0
-534 538 0
-533 540 0
-536 540 0
-539 540 0
-541 540 0
533 536 539 541 -540 0
537 -540 0
-537 540 0
-542 543 0
-544 543 0
542 544 -543 0
33 -543 0
-33 543 0
-545 546 0
546 -547 0
545 547 -546 0
542 -546 0
-542 546 0
-548 549 0
549 -550 0
548 550 -549 0
545 -549 0
-545 549 0
-550 551 0
-552 551 0
550 552 -551 0
548 -551 0
-548 551 0
-553 554 0
-555 554 0
553 555 -554 0
34 -554 0
-34 554 0
-556 557 0
557 -558 0
556 558 -557 0
553 -557 0
-553 557 0
556 -559 0
-556 559 0
-560 561 0
561 -562 0
560 562 -561 0
35 -561 0
-35 561 0
-563 564 0
564 -565 0
563 565 -564 0
560 -564 0
-560 564 0
563 -566 0
-563 566 0
-567 568 0
568 -569 0
567 569 -568 0
36 -568 0
-36 568 0
-570 571 0
571 -572 0
570 572 -571 0
567 -571 0
-567 571 0
-573 574 0
-575 574 0
573 575 -574 0
570 -574 0
-570 574 0
-576 577 0
-578 577 0
576 578 -577 0
573 -577 0
-573 577 0
-579 580 0
-581 580 0
579 581 -580 0
576 -580 0
-576 580 0
-581 582 0
582 -583 0
581 583 -582 0
579 -582 0
-579 582 0
-584 585 0
-586 585 0
584 586 -585 0
37 -585 0
-37 585 0
-587 588 0
588 -589 0
587 589 -588 0
584 -588 0
-584 588 0
-590 591 0
591 -592 0
590 592 -591 0
587 -591 0
-587 591 0
-593 594 0
594 -595 0
593 595 -594 0
590 -594 0
-590 594 0
-596 597 0
597 -598 0
596 598 -597 0
593 -597 0
-593 597 0
-592 599 0
-595 599 0
-598 599 0
-600 599 0
592 595 598 600 -599 0
596 -599 0
-596 599 0
-601 602 0
-603 602 0
601 603 -602 0
38 -602 0
-38 602 0
-604 605 0
605 -606 0
604 606 -605 0
601 -605 0
-601 605 0
-603 607 0
-606 607 0
-608 607 0
603 606 608 -607 0
604 -607 0
-604 607 0
-609 610 0
-611 610 0
609 611 -610 0
39 -610 0
-39 610 0
-612 613 0
-614 613 0
612 614 -613 0
609 -613 0
-609 613 0
-615 616 0
616 -617 0
615 617 -616 0
612 -616 0
-612 616 0
-618 619 0
619 -620 0
618 620 -619 0
615 -619 0
-615 619 0
-621 622 0
-623 622 0
621 623 -622 0
618 -622 0
-618 622 0
-624 625 0
625 -626 0
624 626 -625 0
621 -625 0
-621 625 0
-627 628 0
628 -629 0
627 629 -628 0
624 -628 0
-624 628 0
-623 630 0
-626 630 0
-629 630 0
-631 630 0
623 626 629 631 -630 0
627 -630 0
-627 630 0
-632 633 0
-634 633 0
632 634 -633 0
40 -633 0
-40 633 0
-635 636 0
-637 636 0
635 637 -636 0
632 -636 0
-632 636 0
-638 639 0
-640 639 0
638 640 -639 0
635 -639 0
-635 639 0
-641 642 0
642 -643 0
641 643 -642 0
638 -642 0
-638 642 0
-637 644 0
-640 644 0
-643 644 0
644 -645 0
637 640 643 645 -644 0
641 -644 0
-641 644 0
-646 647 0
647 -648 0
646 648 -647 0
41 -647 0
-41 647 0
-649 650 0
650 -651 0
649 651 -650 0
646 -650 0
-646 650 0
-652 653 0
653 -654 0
652 654 -653 0
649 -653 0
-649 653 0
-654 655 0
-656 655 0
654 656 -655 0
652 -655 0
-652 655 0
-657 658 0
-659 658 0
657 659 -658 0
42 -658 0
-42 658 0
-659 660 0
660 -661 0
659 661 -660 0
657 -660 0
-657 660 0
-662 663 0
-664 663 0
662 664 -663 0
43 -663 0
-43 663 0
-665 666 0
-667 666 0
665 667 -666 0
662 -666 0
-662 666 0
-668 669 0
669 -670 0
668 670 -669 0
665 -669 0
-665 669 0
-671 672 0
672 -673 0
671 673 -672 0
668 -672 0
-668 672 0
671 -674 0
-671 674 0
-675 676 0
-677 676 0
675 677 -676 0
44 -676 0
-44 676 0
675 -678 0
-675 678 0
-679 680 0
-681 680 0
679 681 -680 0
45 -680 0
-45 680 0
-682 683 0
-684 683 0
682 684 -683 0
679 -683 0
-679 683 0
-685 686 0
686 -687 0
685 687 -686 0
682 -686 0
-682 686 0
-688 689 0
-690 689 0
688 690 -689 0
685 -689 0
-685 689 0
-691 692 0
692 -693 0
691 693 -692 0
688 -692 0
-688 692 0
-690 694 0
-693 694 0
-695 694 0
690 693 695 -694 0
691 -694 0
-691 694 0
-696 697 0
-698 697 0
696 698 -697 0
46 -697 0
-46 697 0
-699 700 0
700 -701 0
699 701 -700 0
696 -700 0
-696 700 0
-702 703 0
-704 703 0
702 704 -703 0
699 -703 0
-699 703 0
-705 706 0
706 -707 0
705 707 -706 0
702 -706 0
-702 706 0
-708 709 0
709 -710 0
708 710 -709 0
705 -709 0
-705 709 0
-711 712 0
712 -713 0
711 713 -712 0
708 -712 0
-708 712 0
-714 715 0
-716 715 0
714 716 -715 0
711 -715 0
-711 715 0
-710 717 0
-713 717 0
-716 717 0
-718 717 0
710 713 716 718 -717 0
714 -717 0
-714 717 0
-719 720 0
-721 720 0
719 721 -720 0
47 -720 0
-47 720 0
-722 723 0
-724 723 0
722 724 -723 0
719 -723 0
-719 723 0
-725 726 0
-727 726 0
725 727 -726 0
722 -726 0
-722 726 0
-727 728 0
728 -729 0
727 729 -728 0
725 -728 0
-725 728 0
-730 731 0
731 -732 0
730 732 -731 0
48 -731 0
-48 731 0
730 -733 0
-730 733 0
-734 735 0
-736 735 0
734 736 -735 0
49 -735 0
-49 735 0
-737 738 0
-739 738 0
737 739 -738 0
734 -738 0
-734 738 0
-740 741 0
741 -742 0
740 742 -741 0
737 -741 0
-737 741 0
-743 744 0
744 -745 0
743 745 -744 0
740 -744 0
-740 744 0
-746 747 0
747 -748 0
746 748 -747 0
743 -747 0
-743 747 0
-749 750 0
750 -751 0
749 751 -750 0
746 -750 0
-746 750 0
-752 753 0
-754 753 0
752 754 -753 0
749 -753 0
-749 753 0
-748 755 0
-751 755 0
-754 755 0
-756 755 0
748 751 754 756 -755 0
752 -755 0
-752 755 0
-757 758 0
-759 758 0
757 759 -758 0
50 -758 0
-50 758 0
-760 761 0
761 -762 0
760 762 -761 0
757 -761 0
-757 761 0
-763 764 0
-765 764 0
763 765 -764 0
760 -764 0
-760 764 0
-766 767 0
767 -768 0
766 768 -767 0
763 -767 0
-763 767 0
-762 769 0
-765 769 0
-768 769 0
769 -770 0
762 765 768 770 -769 0
766 -769 0
-766 769 0
51 -771 0
-51 771 0
52 -772 0
-52 772 0
53 -773 0
-53 773 0
54 -774 0
-54 774 0
55 -775 0
-55 775 0
56 -776 0
-56 776 0
57 -777 0
-57 777 0
58 -778 0
-58 778 0
59 -779 0
-59 779 0
60 -780 0
-60 780 0
61 -781 0
-61 781 0
62 -782 0
-62 782 0
63 -783 0
-63 783 0
64 -784 0
-64 784 0
65 -785 0
-65 785 0
66 -786 0
-66 786 0
67 -787 0
-67 787 0
68 -788 0
-68 788 0
69 -789 0
-69 789 0
70 -790 0
-70 790 0
71 -791 0
-71 791 0
72 -792 0
-72 792 0
73 -793 0
-73 793 0
74 -794 0
-74 794 0
75 -795 0
-75 795 0
76 -796 0
-76 796 0
77 -797 0
-77 797 0
78 -798 0
-78 798 0
79 -799 0
-79 799 0
80 -800 0
-80 800 0
81 -801 0
-81 801 0
82 -802 0
-82 802 0
83 -803 0
-83 803 0
84 -804 0
-84 804 0
85 -805 0
-85 805 0
86 -806 0
-86 806 0
87 -807 0
-87 807 0
88 -808 0
-88 808 0
89 -809 0
-89 809 0
90 -810 0
-90 810 0
91 -811 0
-91 811 0
92 -812 0
-92 812 0
93 -813 0
-93 813 0
94 -814 0
-94 814 0
95 -815 0
-95 815 0
96 -816 0
-96 816 0
97 -817 0
-97 817 0
98 -818 0
-98 818 0
99 -819 0
-99 819 0
100 -820 0
-100 820 0
103 -821 0
-821 -105 0
-821 -108 0
-821 -111 0
114 -821 0
-821 -117 0
120 -821 0
-821 -123 0
-821 -125 0
128 -821 0
131 -821 0
-821 -134 0
137 -821 0
140 -821 0
-821 -143 0
145 -821 0
148 -821 0
151 -821 0
-821 -152 0
155 -821 0
-821 -158 0
-821 -161 0
-821 -164 0
166 -821 0
-821 -169 0
-821 -172 0
-821 -175 0
178 -821 0
181 -821 0
-821 -183 0
-821 -186 0
189 -821 0
192 -821 0
-821 -195 0
197 -821 0
200 -821 0
-821 -203 0
-821 -206 0
-821 -209 0
211 -821 0
-821 -214 0
-821 -217 0
-821 -220 0
223 -821 0
226 -821 0
-821 -229 0
-821 -231 0
234 -821 0
-821 -237 0
-821 -240 0
-821 -243 0
245 -821 0
248 -821 0
-821 -251 0
252 -821 0
255 -821 0
258 -821 0
261 -821 0
264 -821 0
267 -821 0
-821 -269 0
272 -821 0
-821 -273 0
276 -821 0
-821 -279 0
282 -821 0
285 -821 0
288 -821 0
291 -821 0
-821 -293 0
296 -821 0
299 -821 0
-821 -301 0
-821 -304 0
-821 -307 0
-821 -310 0
313 -821 0
316 -821 0
319 -821 0
-821 -322 0
-821 -324 0
327 -821 0
330 -821 0
-821 -333 0
-821 -336 0
339 -821 0
341 -821 0
344 -821 0
-821 -347 0
-821 -350 0
353 -821 0
355 -821 0
358 -821 0
361 -821 0
364 -821 0
-821 -367 0
370 -821 0
-821 -373 0
-821 -375 0
378 -821 0
-821 -381 0
-821 -384 0
387 -821 0
-821 -388 0
391 -821 0
-821 -394 0
-821 -397 0
-821 -400 0
402 -821 0
405 -821 0
-821 -406 0
409 -821 0
412 -821 0
415 -821 0
418 -821 0
421 -821 0
-821 -423 0
426 -821 0
-821 -429 0
-821 -432 0
-821 -435 0
438 -821 0
440 -821 0
-821 -443 0
-821 -446 0
449 -821 0
451 -821 0
454 -821 0
-821 -457 0
-821 -460 0
462 -821 0
465 -821 0
-821 -468 0
471 -821 0
-821 -474 0
477 -821 0
-821 -479 0
-821 -482 0
485 -821 0
-821 -488 0
491 -821 0
-821 -492 0
-821 -495 0
-821 -498 0
501 -821 0
-821 -503 0
-821 -506 0
509 -821 0
-821 -512 0
515 -821 0
517 -821 0
520 -821 0
523 -821 0
-821 -524 0
-821 -527 0
530 -821 0
-821 -533 0
536 -821 0
539 -821 0
-821 -541 0
-821 -544 0
547 -821 0
550 -821 0
-821 -552 0
-821 -555 0
558 -821 0
-821 -559 0
562 -821 0
565 -821 0
-821 -566 0
569 -821 0
572 -821 0
-821 -575 0
-821 -578 0
-821 -581 0
583 -821 0
-821 -586 0
589 -821 0
592 -821 0
595 -821 0
598 -821 0
-821 -600 0
-821 -603 0
606 -821 0
-821 -608 0
-821 -611 0
-821 -614 0
617 -821 0
620 -821 0
-821 -623 0
626 -821 0
629 -821 0
-821 -631 0
-821 -634 0
-821 -637 0
-821 -640 0
643 -821 0
645 -821 0
648 -821 0
651 -821 0
654 -821 0
-821 -656 0
-821 -659 0
661 -821 0
-821 -664 0
-821 -667 0
670 -821 0
673 -821 0
-821 -674 0
-821 -677 0
678 -821 0
-821 -681 0
-821 -684 0
687 -821 0
-821 -690 0
693 -821 0
-821 -695 0
-821 -698 0
701 -821 0
-821 -704 0
707 -821 0
710 -821 0
713 -821 0
-821 -716 0
-821 -718 0
-821 -721 0
-821 -724 0
-821 -727 0
729 -821 0
732 -821 0
-821 -733 0
-821 -736 0
-821 -739 0
742 -821 0
745 -821 0
748 -821 0
751 -821 0
-821 -754 0
-821 -756 0
-821 -759 0
762 -821 0
-821 -765 0
768 -821 0
770 -821 0
-821 -771 0
-821 -772 0
-821 -773 0
-821 -774 0
-821 -775 0
-821 -776 0
-821 -777 0
-821 -778 0
-821 -779 0
-821 -780 0
-821 -781 0
-821 -782 0
-821 -783 0
-821 -784 0
-821 -785 0
-821 -786 0
-821 -787 0
-821 -788 0
-821 -789 0
-821 -790 0
-821 -791 0
-821 -792 0
-821 -793 0
-821 -794 0
-821 -795 0
-821 -796 0
-821 -797 0
-821 -798 0
-821 -799 0
-821 -800 0
-821 -801 0
-821 -802 0
-821 -803 0
-821 -804 0
-821 -805 0
-821 -806 0
-821 -807 0
-821 -808 0
-821 -809 0
-821 -810 0
-821 -811 0
-821 -812 0
-821 -813 0
-821 -814 0
-821 -815 0
-821 -816 0
-821 -817 0
-821 -818 0
-821 -819 0
-821 -820 0
821 0
-822 0
-823 0
-824 0
-825 0
-826 0
-827 0
-828 0
-829 0
